************************************************************************
file with basedata            : md370_.bas
initial value random generator: 1531318862
************************************************************************
projects                      :  1
jobs (incl. supersource/sink ):  22
horizon                       :  161
RESOURCES
  - renewable                 :  2   R
  - nonrenewable              :  2   N
  - doubly constrained        :  0   D
************************************************************************
PROJECT INFORMATION:
pronr.  #jobs rel.date duedate tardcost  MPM-Time
    1     20      0       16        2       16
************************************************************************
PRECEDENCE RELATIONS:
jobnr.    #modes  #successors   successors
   1        1          3           2   3   4
   2        3          3           5   6  16
   3        3          2           9  10
   4        3          3           5  12  15
   5        3          3          17  18  20
   6        3          3           7   8  10
   7        3          2          11  18
   8        3          3          14  17  21
   9        3          1          13
  10        3          2          13  14
  11        3          2          12  14
  12        3          3          17  20  21
  13        3          2          15  20
  14        3          1          19
  15        3          1          18
  16        3          1          19
  17        3          1          19
  18        3          1          21
  19        3          1          22
  20        3          1          22
  21        3          1          22
  22        1          0        
************************************************************************
REQUESTS/DURATIONS:
jobnr. mode duration  R 1  R 2  N 1  N 2
------------------------------------------------------------------------
  1      1     0       0    0    0    0
  2      1     2       7    0    9   10
         2     7       0    7    8    6
         3     8       0    7    8    3
  3      1     2       0    4    6   10
         2     8       8    0    5    9
         3    10       7    0    5    8
  4      1     1       3    0    8    5
         2     3       2    0    6    2
         3     8       2    0    5    1
  5      1     1       0    6    6    3
         2     4       0    5    2    2
         3     4       8    0    5    2
  6      1     1       7    0    6    9
         2     3       4    0    6    7
         3     9       4    0    6    6
  7      1     2       0    6    6    3
         2     2       4    0    5    3
         3     8       0    4    5    2
  8      1     2       8    0    5    8
         2     6       6    0    3    5
         3     8       5    0    2    1
  9      1     6       3    0    8    2
         2     7       0    7    8    2
         3     9       0    7    8    1
 10      1     2       0    5    9    3
         2     2       0    7    7    4
         3     6       0    3    5    2
 11      1     5       6    0    6    7
         2     6       0    4    5    6
         3    10       0    3    5    6
 12      1     1       0    7    8    8
         2     4       7    0    4    8
         3    10       3    0    1    7
 13      1     2       5    0    9    7
         2     8       0    4    8    7
         3     9       2    0    7    7
 14      1     2       8    0    9    5
         2     3       7    0    9    3
         3     7       0    9    7    3
 15      1     1       0    4    5    5
         2     2       0    4    5    4
         3     9       0    4    5    1
 16      1     2       4    0    4    7
         2     2       0    5    4    6
         3     5       0    1    3    4
 17      1     4       0    5    5    3
         2     7       7    0    5    2
         3    10       0    4    4    1
 18      1     1       0    7    1    7
         2     4       0    5    1    6
         3    10       6    0    1    5
 19      1     1       0   10    8    7
         2     2       5    0    6    6
         3    10       0    8    5    4
 20      1     1       0    4    9    7
         2     2       7    0    7    6
         3     3       7    0    7    4
 21      1     3       0    8    6    6
         2     4       0    7    5    6
         3     8       0    7    3    2
 22      1     0       0    0    0    0
************************************************************************
RESOURCEAVAILABILITIES:
  R 1  R 2  N 1  N 2
   19   16  123  110
************************************************************************
MAXIMAL LAGS:
from  to  type  delay
    1   22   ES      0
    1    2   ES      0
    2   22   ES      0
    1    3   ES      0
    3   22   ES      0
    1    4   ES      0
    4   22   ES      0
    1    5   ES      0
    5   22   ES      0
    1    6   ES      0
    6   22   ES      0
    1    7   ES      0
    7   22   ES      0
    1    8   ES      0
    8   22   ES      0
    1    9   ES      0
    9   22   ES      0
    1   10   ES      0
   10   22   ES      0
    1   11   ES      0
   11   22   ES      0
    1   12   ES      0
   12   22   ES      0
    1   13   ES      0
   13   22   ES      0
    1   14   ES      0
   14   22   ES      0
    1   15   ES      0
   15   22   ES      0
    1   16   ES      0
   16   22   ES      0
    1   17   ES      0
   17   22   ES      0
    1   18   ES      0
   18   22   ES      0
    1   19   ES      0
   19   22   ES      0
    1   20   ES      0
   20   22   ES      0
    1   21   ES      0
   21   22   ES      0
    1   22   ES      0
    2    5   SS     10
    2    5   SE      1
    2    5   ES      6
    2    5   EE      2
    2    6   SS     11
    2    6   SE     -3
    2    6   ES      5
    2    6   EE     12
    2   16   SS     10
    2   16   SE      0
    2   16   ES      6
    2   16   EE      3
    3    9   SS      5
    3    9   SE     -3
    3    9   ES      4
    3    9   EE      3
    3   10   SS      6
    3   10   SE     12
    3   10   ES      4
    3   10   EE      8
    4    5   SS      7
    4    5   SE      1
    4    5   ES     11
    4    5   EE     -6
    4   12   SS    -10
    4   12   SE      6
    4   12   ES      1
    4   12   EE     -5
    4   15   SS    -11
    4   15   SE     -1
    4   15   ES     -7
    4   15   EE      3
    5   17   SS      8
    5   17   SE    -11
    5   17   ES     -4
    5   17   EE     10
    5   18   SS     -6
    5   18   SE      0
    5   18   ES      6
    5   18   EE     -7
    5   20   SS     -7
    5   20   SE     12
    5   20   ES     -1
    5   20   EE      6
    6    7   SS     11
    6    7   SE    -10
    6    7   ES      1
    6    7   EE     -4
    6    8   SS     -8
    6    8   SE     -5
    6    8   ES    -12
    6    8   EE     -9
    6   10   SS     -8
    6   10   SE      3
    6   10   ES     -3
    6   10   EE      0
    7   11   SS      6
    7   11   SE     10
    7   11   ES     12
    7   11   EE    -12
    7   18   SS     -9
    7   18   SE      3
   18    7   SE      0
    7   18   ES      0
    7   18   EE     -6
    8   14   SS     -9
    8   14   SE     12
    8   14   ES      7
    8   14   EE    -10
    8   17   SS      6
    8   17   SE      4
    8   17   ES      1
    8   17   EE     -5
    8   21   SS      2
    8   21   SE      9
    8   21   ES      8
    8   21   EE    -12
    9   13   SS      4
    9   13   SE     -1
    9   13   ES      9
    9   13   EE     -1
   10   13   SS     -5
   10   13   SE      0
   10   13   ES    -12
   10   13   EE      1
   10   14   SS     -8
   10   14   SE     -7
   10   14   ES     -6
   10   14   EE    -12
   11   12   SS      1
   11   12   SE     -6
   11   12   ES     -1
   11   12   EE      1
   11   14   SS      3
   11   14   SE     -6
   11   14   ES      8
   11   14   EE     11
   12   17   SS     -1
   12   17   SE      3
   12   17   ES      2
   12   17   EE     -1
   12   20   SS      0
   12   20   SE      7
   12   20   ES     11
   12   20   EE     -3
   12   21   SS     -7
   12   21   SE     12
   12   21   ES      7
   12   21   EE      4
   13   15   SS     -3
   13   15   SE    -10
   13   15   ES    -12
   13   15   EE     -3
   13   20   SS    -12
   13   20   SE     10
   13   20   ES    -11
   13   20   EE     -6
   14   19   SS     11
   14   19   SE     -7
   14   19   ES      3
   14   19   EE     -6
   15   18   SS    -12
   15   18   SE     -6
   15   18   ES     12
   15   18   EE     -8
   16   19   SS     -3
   16   19   SE     12
   16   19   ES      4
   16   19   EE     -7
   17   19   SS     10
   17   19   SE      2
   17   19   ES     -3
   17   19   EE     10
   18   21   SS      0
   18   21   SE     -6
   18   21   ES     11
   18   21   EE     -2
************************************************************************
